12 40 6 10
2 17 19 9 11 7 16 1 4 4 9 12 14 6 6 8 7 13 18 4 7 9 15 18 12 17 7 1 15 15 6 19 1 5 5 5 14 19 15 11 
6.93 4.16 4.5 1.31 6.59 7.29 5.44 6 6.92 2.61 0.92 2.15 6.97 0.24 7.13 1.93 5.59 6.42 3.03 5.67 6.11 7.46 6.2 6.57 6.62 3.22 4.44 7.13 5.02 2.85 4.26 5.4 2.29 6.29 3.07 2.29 2.38 5.9 1.85 1.95 
1.01 6.05 5.09 1.44 2.59 5.06 6.17 7.26 2.7 2.68 4.44 1.65 6.38 1.71 6.61 5.54 4.47 5.23 0.86 1.36 5.37 4.84 7.9 6.61 4.44 6.4 0.69 0.45 0.74 7.09 2.95 5.06 2.17 5.19 0.71 0.87 2.55 4.9 7.03 4.94 
0.75 7.29 6.54 1.02 6.3 6.48 6.02 6.39 5.72 6.19 7.94 2.36 3.38 4.27 1.74 1.78 6.93 4.29 2.81 0.74 0.78 4.77 5.32 2.24 2.9 0.79 4.35 5.47 0.07 2.89 7.92 3.56 5.08 2.86 5.24 7.66 1.15 4.5 5.13 5.59 
3.38 4.6 2.16 2.79 2.53 5.44 6.01 6.38 2.99 1.73 1.78 1.39 0.7 6.73 5.06 3.52 4.19 0.54 7.6 0.24 2.85 3.41 2.3 3.48 0.57 3.34 7.27 1.3 5.57 7.16 4.49 1.43 5.61 6.67 7.74 1.26 0.05 5.45 5.98 1.02 
7.56 4.92 1.1 3.23 0.98 1.45 0.43 3.59 6.37 7.14 6.22 0.96 3.36 2.06 6.15 0.28 3.98 1.03 4.77 2.81 7.66 3.77 1.1 6.76 5.2 4.23 5.38 3.15 6.96 4.44 3.92 6.25 5.95 6.99 0.65 4.59 4 5.46 7.35 4.06 
3.96 5.83 7.11 0.6 0.49 4.2 2.53 3.19 1.83 6.67 1.27 0.77 3.32 4.34 6.1 5.15 2.45 7.06 2.7 7.63 6.54 5.26 2.57 3 2.35 2.24 7.74 1.08 4.87 0.18 0.81 5.8 6.57 7.04 6.31 2.2 7.99 5.2 1.95 3.84 
4 4 4 4 4 4 4 4 4 4 4 4 4 4 4 4 4 4 4 4 4 4 4 4 4 4 4 4 4 4 4 4 4 4 4 4 4 4 4 4 
0.78 3.13 2.92 0.29 6.34 6.52 6.05 4.8 4.55 2.46 5.01 6.58 2.88 1.71 1.25 2.67 4.88 7.45 0.34 1.8 1.8 2.94 5.47 7.94 7.81 2.25 1.16 0.76 7.56 6.06 5.11 4.57 2.22 2.83 7.46 5.48 1.77 1.34 7.6 1.76 
5.37 2.1 7.32 2.62 7.28 3.32 6.13 7.49 6.99 4.34 3.92 0.07 2.59 7.4 6 0.76 6.6 3.47 3.43 2.93 5.6 7.4 2.1 6.14 1.69 5.52 4.84 3.65 3.13 5.52 6.77 3.95 3.35 0.09 7.71 6.82 1.86 0.39 3.93 6.82 
0.23 1.35 2.9 1.03 0.06 4.67 3.26 3.45 7.97 1.37 5.02 6.56 3.87 6.27 0.7 2.18 7.85 6.36 1.33 2.85 2.79 4.53 3.2 2.69 1.14 2.81 1.57 5.04 6.39 3.98 0.03 4.97 2.51 3.19 7.15 1.99 4.95 5.68 4.27 1.9 
1.91 4.34 2.56 4.2 3.34 4.02 4.65 0.66 6.92 4.45 0.09 0.66 1.1 3.53 7.86 3.41 6.88 5.14 0.45 6.49 0.4 2.14 5.32 7.44 2.1 6.37 1.93 4.03 4.1 3.21 4.62 6.34 0.06 5.56 6.55 7.72 2.8 1.26 7.67 1.89 
1.5 7.28 7.93 5.66 2.56 1.4 3.61 4.69 0.81 6.75 7.94 4.31 0.15 4.15 4.59 1.72 7.64 5.45 4.18 3.77 6.65 1.32 4.85 3.36 1.63 2.8 3.46 0.82 6.22 2.08 3.55 7.88 5.93 4.8 2.06 6.04 3.31 4.63 7.63 7.43 
1 1 1 1 1 1 1 1 1 1 1 1 1 1 1 1 1 1 1 1 1 1 1 1 1 1 1 1 1 1 1 1 1 1 1 1 1 1 1 1 
1 1 1 1 1 1 1 1 1 1 1 1 1 1 1 1 1 1 1 1 1 1 1 1 1 1 1 1 1 1 1 1 1 1 1 1 1 1 1 1 
1 1 1 1 1 1 1 1 1 1 1 1 1 1 1 1 1 1 1 1 1 1 1 1 1 1 1 1 1 1 1 1 1 1 1 1 1 1 1 1 
1 1 1 1 1 1 1 1 1 1 1 1 1 1 1 1 1 1 1 1 1 1 1 1 1 1 1 1 1 1 1 1 1 1 1 1 1 1 1 1 
1 1 1 1 1 1 1 1 1 1 1 1 1 1 1 1 1 1 1 1 1 1 1 1 1 1 1 1 1 1 1 1 1 1 1 1 1 1 1 1 
1 1 1 1 1 1 1 1 1 1 1 1 1 1 1 1 1 1 1 1 1 1 1 1 1 1 1 1 1 1 1 1 1 1 1 1 1 1 1 1 
1 1 1 1 1 1 1 1 1 1 1 1 1 1 1 1 1 1 1 1 1 1 1 1 1 1 1 1 1 1 1 1 1 1 1 1 1 1 1 1 
1 1 1 1 1 1 1 1 1 1 1 1 1 1 1 1 1 1 1 1 1 1 1 1 1 1 1 1 1 1 1 1 1 1 1 1 1 1 1 1 
1 1 1 1 1 1 1 1 1 1 1 1 1 1 1 1 1 1 1 1 1 1 1 1 1 1 1 1 1 1 1 1 1 1 1 1 1 1 1 1 
1 1 1 1 1 1 1 1 1 1 1 1 1 1 1 1 1 1 1 1 1 1 1 1 1 1 1 1 1 1 1 1 1 1 1 1 1 1 1 1 
1 1 1 1 1 1 1 1 1 1 1 1 1 1 1 1 1 1 1 1 1 1 1 1 1 1 1 1 1 1 1 1 1 1 1 1 1 1 1 1 
1 1 1 1 1 1 1 1 1 1 1 1 1 1 1 1 1 1 1 1 1 1 1 1 1 1 1 1 1 1 1 1 1 1 1 1 1 1 1 1 
0.01 0.01 0.01 0.01 0.01 0.01 0.01 0.01 0.01 0.01 0.01 0.01 0.01 0.01 0.01 0.01 0.01 0.01 0.01 0.01 0.01 0.01 0.01 0.01 0.01 0.01 0.01 0.01 0.01 0.01 0.01 0.01 0.01 0.01 0.01 0.01 0.01 0.01 0.01 0.01 
0.02 0.02 0.02 0.02 0.02 0.02 0.02 0.02 0.02 0.02 0.02 0.02 0.02 0.02 0.02 0.02 0.02 0.02 0.02 0.02 0.02 0.02 0.02 0.02 0.02 0.02 0.02 0.02 0.02 0.02 0.02 0.02 0.02 0.02 0.02 0.02 0.02 0.02 0.02 0.02 
0.03 0.03 0.03 0.03 0.03 0.03 0.03 0.03 0.03 0.03 0.03 0.03 0.03 0.03 0.03 0.03 0.03 0.03 0.03 0.03 0.03 0.03 0.03 0.03 0.03 0.03 0.03 0.03 0.03 0.03 0.03 0.03 0.03 0.03 0.03 0.03 0.03 0.03 0.03 0.03 
0.04 0.04 0.04 0.04 0.04 0.04 0.04 0.04 0.04 0.04 0.04 0.04 0.04 0.04 0.04 0.04 0.04 0.04 0.04 0.04 0.04 0.04 0.04 0.04 0.04 0.04 0.04 0.04 0.04 0.04 0.04 0.04 0.04 0.04 0.04 0.04 0.04 0.04 0.04 0.04 
0.05 0.05 0.05 0.05 0.05 0.05 0.05 0.05 0.05 0.05 0.05 0.05 0.05 0.05 0.05 0.05 0.05 0.05 0.05 0.05 0.05 0.05 0.05 0.05 0.05 0.05 0.05 0.05 0.05 0.05 0.05 0.05 0.05 0.05 0.05 0.05 0.05 0.05 0.05 0.05 
0.06 0.06 0.06 0.06 0.06 0.06 0.06 0.06 0.06 0.06 0.06 0.06 0.06 0.06 0.06 0.06 0.06 0.06 0.06 0.06 0.06 0.06 0.06 0.06 0.06 0.06 0.06 0.06 0.06 0.06 0.06 0.06 0.06 0.06 0.06 0.06 0.06 0.06 0.06 0.06 
0.07 0.07 0.07 0.07 0.07 0.07 0.07 0.07 0.07 0.07 0.07 0.07 0.07 0.07 0.07 0.07 0.07 0.07 0.07 0.07 0.07 0.07 0.07 0.07 0.07 0.07 0.07 0.07 0.07 0.07 0.07 0.07 0.07 0.07 0.07 0.07 0.07 0.07 0.07 0.07 
0.2 0.2 0.2 0.2 0.2 0.2 0.2 0.2 0.2 0.2 0.2 0.2 0.2 0.2 0.2 0.2 0.2 0.2 0.2 0.2 0.2 0.2 0.2 0.2 0.2 0.2 0.2 0.2 0.2 0.2 0.2 0.2 0.2 0.2 0.2 0.2 0.2 0.2 0.2 0.2 
0.4 0.4 0.4 0.4 0.4 0.4 0.4 0.4 0.4 0.4 0.4 0.4 0.4 0.4 0.4 0.4 0.4 0.4 0.4 0.4 0.4 0.4 0.4 0.4 0.4 0.4 0.4 0.4 0.4 0.4 0.4 0.4 0.4 0.4 0.4 0.4 0.4 0.4 0.4 0.4 
0.6 0.6 0.6 0.6 0.6 0.6 0.6 0.6 0.6 0.6 0.6 0.6 0.6 0.6 0.6 0.6 0.6 0.6 0.6 0.6 0.6 0.6 0.6 0.6 0.6 0.6 0.6 0.6 0.6 0.6 0.6 0.6 0.6 0.6 0.6 0.6 0.6 0.6 0.6 0.6 
0.8 0.8 0.8 0.8 0.8 0.8 0.8 0.8 0.8 0.8 0.8 0.8 0.8 0.8 0.8 0.8 0.8 0.8 0.8 0.8 0.8 0.8 0.8 0.8 0.8 0.8 0.8 0.8 0.8 0.8 0.8 0.8 0.8 0.8 0.8 0.8 0.8 0.8 0.8 0.8 
1 1 1 1 1 1 1 1 1 1 1 1 1 1 1 1 1 1 1 1 1 1 1 1 1 1 1 1 1 1 1 1 1 1 1 1 1 1 1 1 
